ilp_joint/output/chemical reaction_ilp.lp
Maximize
  0.00155801711967607 Z_582_5_0 + 0.00204852344578839 Z_582_5_1
   + 0.5287007107457402 Z_582_5_2 + 0.00161422424137041 Z_582_5_3
   + 0.366078524447425 Z_582_5_4 + 0.00479985392831748 Z_582_0_0
   + 0.00130603411331573 Z_582_0_1 + 0.00354188768095853 Z_582_0_2
   + 0.0541418201929556 Z_582_0_3 + 0.8362104040844529 Z_582_0_4
   + 0.00479985392831748 Z_582_1_0 + 0.00130603411331573 Z_582_1_1
   + 0.00354188768095853 Z_582_1_2 + 0.0541418201929556 Z_582_1_3
   + 0.8362104040844529 Z_582_1_4 + 0.00389360743314617 Z_582_2_0
   + 0.00678821704541241 Z_582_2_1 + 0.00569178199648282 Z_582_2_2
   + 0.0789212508998191 Z_582_2_3 + 0.8047051426251394 Z_582_2_4
   + 0.00647263639952837 Z_582_6_0 + 0.0546731051963031 Z_582_6_1
   + 0.2421775526076219 Z_582_6_2 + 0.0106939162503446 Z_582_6_3
   + 0.585982789546202 Z_582_6_4 + 0.00389360743314617 Z_582_4_0
   + 0.00678821704541241 Z_582_4_1 + 0.00569178199648282 Z_582_4_2
   + 0.0789212508998191 Z_582_4_3 + 0.8047051426251394 Z_582_4_4
   + 0.00389360743314617 Z_582_3_0 + 0.00678821704541241 Z_582_3_1
   + 0.00569178199648282 Z_582_3_2 + 0.0789212508998191 Z_582_3_3
   + 0.8047051426251394 Z_582_3_4
Subject To
 constraint1_5825: Z_582_5_0 + Z_582_5_1 + Z_582_5_2 + Z_582_5_3
   + Z_582_5_4 <= 1
 constraint1_5820: Z_582_0_0 + Z_582_0_1 + Z_582_0_2 + Z_582_0_3
   + Z_582_0_4 <= 1
 constraint1_5821: Z_582_1_0 + Z_582_1_1 + Z_582_1_2 + Z_582_1_3
   + Z_582_1_4 <= 1
 constraint1_5822: Z_582_2_0 + Z_582_2_1 + Z_582_2_2 + Z_582_2_3
   + Z_582_2_4 <= 1
 constraint1_5826: Z_582_6_0 + Z_582_6_1 + Z_582_6_2 + Z_582_6_3
   + Z_582_6_4 <= 1
 constraint1_5824: Z_582_4_0 + Z_582_4_1 + Z_582_4_2 + Z_582_4_3
   + Z_582_4_4 <= 1
 constraint1_5823: Z_582_3_0 + Z_582_3_1 + Z_582_3_2 + Z_582_3_3
   + Z_582_3_4 <= 1
 constraint2_5820: Z_582_5_0 + Z_582_0_0 + Z_582_1_0 + Z_582_2_0
   + Z_582_6_0 + Z_582_4_0 + Z_582_3_0 <= 1
 constraint2_5821: Z_582_5_1 + Z_582_0_1 + Z_582_1_1 + Z_582_2_1
   + Z_582_6_1 + Z_582_4_1 + Z_582_3_1 <= 1
 constraint2_5822: Z_582_5_2 + Z_582_0_2 + Z_582_1_2 + Z_582_2_2
   + Z_582_6_2 + Z_582_4_2 + Z_582_3_2 <= 1
 constraint2_5823: Z_582_5_3 + Z_582_0_3 + Z_582_1_3 + Z_582_2_3
   + Z_582_6_3 + Z_582_4_3 + Z_582_3_3 <= 1
Bounds
Binaries
 Z_582_5_0 Z_582_5_1 Z_582_5_2 Z_582_5_3 Z_582_5_4 Z_582_0_0 Z_582_0_1
 Z_582_0_2 Z_582_0_3 Z_582_0_4 Z_582_1_0 Z_582_1_1 Z_582_1_2 Z_582_1_3
 Z_582_1_4 Z_582_2_0 Z_582_2_1 Z_582_2_2 Z_582_2_3 Z_582_2_4 Z_582_6_0
 Z_582_6_1 Z_582_6_2 Z_582_6_3 Z_582_6_4 Z_582_4_0 Z_582_4_1 Z_582_4_2
 Z_582_4_3 Z_582_4_4 Z_582_3_0 Z_582_3_1 Z_582_3_2 Z_582_3_3 Z_582_3_4
End
