ilp_joint/output/chemical reaction_ilp.mps
NAME chemical reaction_srl_ilp
* Max problem is converted into Min one
ROWS
 N  OBJ
 L  constraint1_5825
 L  constraint1_5820
 L  constraint1_5821
 L  constraint1_5822
 L  constraint1_5826
 L  constraint1_5824
 L  constraint1_5823
 L  constraint2_5820
 L  constraint2_5821
 L  constraint2_5822
 L  constraint2_5823
COLUMNS
    MARKER    'MARKER'                 'INTORG'
    Z_582_5_0  OBJ       -1.5580171196760704e-03
    Z_582_5_0  constraint1_5825  1
    Z_582_5_0  constraint2_5820  1
    Z_582_5_1  OBJ       -2.0485234457883941e-03
    Z_582_5_1  constraint1_5825  1
    Z_582_5_1  constraint2_5821  1
    Z_582_5_2  OBJ       -5.2870071074574021e-01
    Z_582_5_2  constraint1_5825  1
    Z_582_5_2  constraint2_5822  1
    Z_582_5_3  OBJ       -1.6142242413704109e-03
    Z_582_5_3  constraint1_5825  1
    Z_582_5_3  constraint2_5823  1
    Z_582_5_4  OBJ       -3.6607852444742500e-01
    Z_582_5_4  constraint1_5825  1
    Z_582_0_0  OBJ       -4.7998539283174843e-03
    Z_582_0_0  constraint1_5820  1
    Z_582_0_0  constraint2_5820  1
    Z_582_0_1  OBJ       -1.3060341133157335e-03
    Z_582_0_1  constraint1_5820  1
    Z_582_0_1  constraint2_5821  1
    Z_582_0_2  OBJ       -3.5418876809585336e-03
    Z_582_0_2  constraint1_5820  1
    Z_582_0_2  constraint2_5822  1
    Z_582_0_3  OBJ       -5.4141820192955610e-02
    Z_582_0_3  constraint1_5820  1
    Z_582_0_3  constraint2_5823  1
    Z_582_0_4  OBJ       -8.3621040408445291e-01
    Z_582_0_4  constraint1_5820  1
    Z_582_1_0  OBJ       -4.7998539283174843e-03
    Z_582_1_0  constraint1_5821  1
    Z_582_1_0  constraint2_5820  1
    Z_582_1_1  OBJ       -1.3060341133157335e-03
    Z_582_1_1  constraint1_5821  1
    Z_582_1_1  constraint2_5821  1
    Z_582_1_2  OBJ       -3.5418876809585336e-03
    Z_582_1_2  constraint1_5821  1
    Z_582_1_2  constraint2_5822  1
    Z_582_1_3  OBJ       -5.4141820192955610e-02
    Z_582_1_3  constraint1_5821  1
    Z_582_1_3  constraint2_5823  1
    Z_582_1_4  OBJ       -8.3621040408445291e-01
    Z_582_1_4  constraint1_5821  1
    Z_582_2_0  OBJ       -3.8936074331461725e-03
    Z_582_2_0  constraint1_5822  1
    Z_582_2_0  constraint2_5820  1
    Z_582_2_1  OBJ       -6.7882170454124126e-03
    Z_582_2_1  constraint1_5822  1
    Z_582_2_1  constraint2_5821  1
    Z_582_2_2  OBJ       -5.6917819964828163e-03
    Z_582_2_2  constraint1_5822  1
    Z_582_2_2  constraint2_5822  1
    Z_582_2_3  OBJ       -7.8921250899819065e-02
    Z_582_2_3  constraint1_5822  1
    Z_582_2_3  constraint2_5823  1
    Z_582_2_4  OBJ       -8.0470514262513937e-01
    Z_582_2_4  constraint1_5822  1
    Z_582_6_0  OBJ       -6.4726363995283665e-03
    Z_582_6_0  constraint1_5826  1
    Z_582_6_0  constraint2_5820  1
    Z_582_6_1  OBJ       -5.4673105196303071e-02
    Z_582_6_1  constraint1_5826  1
    Z_582_6_1  constraint2_5821  1
    Z_582_6_2  OBJ       -2.4217755260762194e-01
    Z_582_6_2  constraint1_5826  1
    Z_582_6_2  constraint2_5822  1
    Z_582_6_3  OBJ       -1.0693916250344642e-02
    Z_582_6_3  constraint1_5826  1
    Z_582_6_3  constraint2_5823  1
    Z_582_6_4  OBJ       -5.8598278954620198e-01
    Z_582_6_4  constraint1_5826  1
    Z_582_4_0  OBJ       -3.8936074331461725e-03
    Z_582_4_0  constraint1_5824  1
    Z_582_4_0  constraint2_5820  1
    Z_582_4_1  OBJ       -6.7882170454124126e-03
    Z_582_4_1  constraint1_5824  1
    Z_582_4_1  constraint2_5821  1
    Z_582_4_2  OBJ       -5.6917819964828163e-03
    Z_582_4_2  constraint1_5824  1
    Z_582_4_2  constraint2_5822  1
    Z_582_4_3  OBJ       -7.8921250899819065e-02
    Z_582_4_3  constraint1_5824  1
    Z_582_4_3  constraint2_5823  1
    Z_582_4_4  OBJ       -8.0470514262513937e-01
    Z_582_4_4  constraint1_5824  1
    Z_582_3_0  OBJ       -3.8936074331461725e-03
    Z_582_3_0  constraint1_5823  1
    Z_582_3_0  constraint2_5820  1
    Z_582_3_1  OBJ       -6.7882170454124126e-03
    Z_582_3_1  constraint1_5823  1
    Z_582_3_1  constraint2_5821  1
    Z_582_3_2  OBJ       -5.6917819964828163e-03
    Z_582_3_2  constraint1_5823  1
    Z_582_3_2  constraint2_5822  1
    Z_582_3_3  OBJ       -7.8921250899819065e-02
    Z_582_3_3  constraint1_5823  1
    Z_582_3_3  constraint2_5823  1
    Z_582_3_4  OBJ       -8.0470514262513937e-01
    Z_582_3_4  constraint1_5823  1
    MARKER    'MARKER'                 'INTEND'
RHS
    RHS1      constraint1_5825  1
    RHS1      constraint1_5820  1
    RHS1      constraint1_5821  1
    RHS1      constraint1_5822  1
    RHS1      constraint1_5826  1
    RHS1      constraint1_5824  1
    RHS1      constraint1_5823  1
    RHS1      constraint2_5820  1
    RHS1      constraint2_5821  1
    RHS1      constraint2_5822  1
    RHS1      constraint2_5823  1
BOUNDS
 UP BND1      Z_582_5_0  1
 UP BND1      Z_582_5_1  1
 UP BND1      Z_582_5_2  1
 UP BND1      Z_582_5_3  1
 UP BND1      Z_582_5_4  1
 UP BND1      Z_582_0_0  1
 UP BND1      Z_582_0_1  1
 UP BND1      Z_582_0_2  1
 UP BND1      Z_582_0_3  1
 UP BND1      Z_582_0_4  1
 UP BND1      Z_582_1_0  1
 UP BND1      Z_582_1_1  1
 UP BND1      Z_582_1_2  1
 UP BND1      Z_582_1_3  1
 UP BND1      Z_582_1_4  1
 UP BND1      Z_582_2_0  1
 UP BND1      Z_582_2_1  1
 UP BND1      Z_582_2_2  1
 UP BND1      Z_582_2_3  1
 UP BND1      Z_582_2_4  1
 UP BND1      Z_582_6_0  1
 UP BND1      Z_582_6_1  1
 UP BND1      Z_582_6_2  1
 UP BND1      Z_582_6_3  1
 UP BND1      Z_582_6_4  1
 UP BND1      Z_582_4_0  1
 UP BND1      Z_582_4_1  1
 UP BND1      Z_582_4_2  1
 UP BND1      Z_582_4_3  1
 UP BND1      Z_582_4_4  1
 UP BND1      Z_582_3_0  1
 UP BND1      Z_582_3_1  1
 UP BND1      Z_582_3_2  1
 UP BND1      Z_582_3_3  1
 UP BND1      Z_582_3_4  1
ENDATA
