ilp_joint/output/chemical reaction_ilp.sol
# Solution for model chemical reaction_srl_ilp
# Objective value = 6.8410829786147609e-01
Z_582_3_0 1
Z_582_3_1 0
Z_582_3_2 0
Z_582_3_3 0
Z_582_0_0 0
Z_582_0_1 0
Z_582_0_2 0
Z_582_0_3 0
Z_582_6_0 0
Z_582_6_1 1
Z_582_6_2 0
Z_582_6_3 0
Z_582_5_0 0
Z_582_5_1 0
Z_582_5_2 1
Z_582_5_3 0
Z_582_4_0 0
Z_582_4_1 0
Z_582_4_2 0
Z_582_4_3 1
Z_582_2_0 0
Z_582_2_1 0
Z_582_2_2 0
Z_582_2_3 0
Z_582_1_0 0
Z_582_1_1 0
Z_582_1_2 0
Z_582_1_3 0
